c Generated map
c Size: 8 * 8, weights in range: 1 to 10, walls: True, with ratio 0.05
c dim 8 of 8
c
p sp 64 101
c graph contains 64 nodes and 101 arcs
c
a 1 9 4
a 9 1 4
a 1 2 8
a 2 1 8
a 2 10 4
a 10 2 4
a 2 3 1
a 3 2 1
a 3 11 4
a 11 3 4
a 3 4 8
a 4 3 8
a 4 12 10
a 12 4 10
a 4 5 3
a 5 4 3
a 5 13 6
a 13 5 6
a 5 6 10
a 6 5 10
a 6 14 5
a 14 6 5
a 6 7 4
a 7 6 4
a 7 15 5
a 15 7 5
a 7 8 1
a 8 7 1
a 8 16 6
a 16 8 6
a 9 17 3
a 17 9 3
a 9 10 9
a 10 9 9
a 10 18 9
a 18 10 9
a 10 11 6
a 11 10 6
a 11 19 1
a 19 11 1
a 11 12 8
a 12 11 8
a 12 20 10
a 20 12 10
a 12 13 10
a 13 12 10
a 13 14 8
a 14 13 8
a 14 22 8
a 22 14 8
a 14 15 9
a 15 14 9
a 15 23 6
a 23 15 6
a 15 16 2
a 16 15 2
a 17 25 1
a 25 17 1
a 17 18 3
a 18 17 3
a 18 26 6
a 26 18 6
a 18 19 7
a 19 18 7
a 19 27 2
a 27 19 2
a 19 20 7
a 20 19 7
a 20 28 7
a 28 20 7
a 22 30 1
a 30 22 1
a 22 23 8
a 23 22 8
a 23 31 7
a 31 23 7
a 25 33 1
a 33 25 1
a 25 26 7
a 26 25 7
a 26 34 6
a 34 26 6
a 26 27 10
a 27 26 10
a 27 35 9
a 35 27 9
a 27 28 9
a 28 27 9
a 28 36 4
a 36 28 4
a 28 29 6
a 29 28 6
a 29 37 5
a 37 29 5
a 29 30 8
a 30 29 8
a 30 38 6
a 38 30 6
a 30 31 7
a 31 30 7
a 31 39 4
a 39 31 4
a 31 32 4
a 32 31 4
a 32 40 1
a 40 32 1
a 33 41 2
a 41 33 2
a 33 34 2
a 34 33 2
a 34 42 3
a 42 34 3
a 34 35 9
a 35 34 9
a 35 43 4
a 43 35 4
a 35 36 2
a 36 35 2
a 36 44 7
a 44 36 7
a 36 37 3
a 37 36 3
a 37 45 5
a 45 37 5
a 37 38 7
a 38 37 7
a 38 39 5
a 39 38 5
a 39 47 9
a 47 39 9
a 39 40 2
a 40 39 2
a 40 48 8
a 48 40 8
a 41 49 2
a 49 41 2
a 41 42 3
a 42 41 3
a 42 50 2
a 50 42 2
a 42 43 7
a 43 42 7
a 43 51 1
a 51 43 1
a 43 44 2
a 44 43 2
a 44 52 3
a 52 44 3
a 44 45 9
a 45 44 9
a 45 53 9
a 53 45 9
a 47 55 9
a 55 47 9
a 47 48 6
a 48 47 6
a 48 56 8
a 56 48 8
a 49 57 6
a 57 49 6
a 49 50 8
a 50 49 8
a 50 58 8
a 58 50 8
a 50 51 9
a 51 50 9
a 51 59 10
a 59 51 10
a 51 52 10
a 52 51 10
a 52 60 1
a 60 52 1
a 52 53 8
a 53 52 8
a 53 61 9
a 61 53 9
a 53 54 1
a 54 53 1
a 54 62 4
a 62 54 4
a 54 55 2
a 55 54 2
a 55 63 4
a 63 55 4
a 55 56 8
a 56 55 8
a 56 64 7
a 64 56 7
a 57 58 1
a 58 57 1
a 58 59 2
a 59 58 2
a 59 60 4
a 60 59 4
a 60 61 5
a 61 60 5
a 61 62 2
a 62 61 2
a 62 63 1
a 63 62 1
a 63 64 7
a 64 63 7
